NAME: I22545-n74-k6
COMMENT : (Fake et al, No of trucks: 6, Optimal value: )
TYPE : CVRP
DIMENSION : 74
EDGE_WEIGHT_TYPE : EUC_2D
CAPACITY : 29
NODE_COORD_SECTION
1 322 248
2 22 385
3 481 978
4 728 103
5 952 305
6 409 295
7 695 644
8 804 773
9 396 911
10 868 9
11 928 335
12 262 874
13 788 683
14 878 294
15 171 937
16 786 899
17 557 502
18 533 76
19 285 804
20 562 336
21 969 951
22 721 178
23 784 367
24 841 524
25 565 582
26 565 33
27 187 76
28 254 511
29 234 981
30 482 834
31 84 750
32 192 711
33 295 139
34 549 277
35 980 611
36 582 499
37 137 915
38 600 270
39 353 667
40 508 598
41 61 397
42 477 486
43 852 279
44 709 680
45 35 787
46 448 424
47 794 184
48 205 923
49 582 530
50 88 57
51 737 601
52 199 52
53 445 205
54 573 78
55 394 983
56 104 16
57 206 586
58 80 762
59 933 326
60 824 504
61 569 953
62 691 51
63 825 718
64 647 341
65 243 440
66 318 765
67 405 870
68 527 290
69 253 873
70 52 923
71 11 380
72 854 68
73 126 301
74 434 62
DEMAND_SECTION
1 0
2 2
3 3
4 3
5 2
6 1
7 1
8 1
9 1
10 2
11 1
12 2
13 3
14 2
15 3
16 2
17 1
18 2
19 3
20 1
21 2
22 2
23 3
24 3
25 2
26 1
27 1
28 3
29 2
30 2
31 3
32 2
33 1
34 1
35 1
36 3
37 3
38 3
39 1
40 3
41 1
42 1
43 2
44 1
45 1
46 2
47 2
48 3
49 2
50 3
51 2
52 3
53 2
54 2
55 3
56 1
57 1
58 2
59 2
60 3
61 1
62 1
63 2
64 2
65 2
66 2
67 2
68 3
69 2
70 2
71 2
72 2
73 1
74 3
DEPOT_SECTION
 1
 -1
 EOF 